n = 8;

c = [[0.00,0.00,0.00,0.00,0.00,0.00,0.00,0.00],
[0.11,0.00,0.22,0.11,0.22,0.11,0.33,0.22],
[0.33,0.00,0.22,-0.11,0.44,0.11,0.33,0.00],
[0.44,0.00,0.44,0.00,0.66,0.22,0.66,0.22],
[0.55,0.22,0.22,-0.11,0.44,0.11,0.11,-0.22],
[0.66,0.22,0.44,0.00,0.66,0.22,0.44,0.00],
[0.88,0.22,0.44,-0.22,0.88,0.22,0.44,-0.22],
[1.00,0.22,0.66,-0.11,1.11,0.33,0.77,0.00]
];